32 18
10 554
14 840
16 768
11 627
15 683
9 61
1 954
16 597
9 356
9 334
8 425
17 227
17 325
4 300
11 921
15 375
13 836
5 410
12 733
12 829
9 884
12 817
6 38
13 353
11 102
15 191
3 452
1 655
14 774
11 700
12 469
16 51
